
Gurobi 7.0.2 (linux64, Matlab) logging started Sun Sep  2 08:55:24 2018


Gurobi 7.0.2 (linux64) logging started Sun Sep  2 08:55:24 2018

Optimize a model with 28860 rows, 153140 columns and 575246 nonzeros
Coefficient statistics:
  Matrix range     [1e+00, 3e+02]
  Objective range  [1e+00, 3e+02]
  Bounds range     [1e+03, 3e+05]
  RHS range        [1e+00, 5e+02]
Iteration    Objective       Primal Inf.    Dual Inf.      Time
       0    2.3703941e+04   0.000000e+00   0.000000e+00      0s

Solved in 0 iterations and 0.03 seconds
Optimal objective  2.370394118e+04
